data/solutions/recovery/wellformed/intermediate/binding/wellformed_intermediate_instance73/25.sol
Elapsed time: 0.06
Upper bound: 4564.0
Planning weighted value: 203970191.0
C[0]=4564.0
C[1]=4539.0
C[2]=4482.0
C[3]=4324.0
C[4]=4026.0
C[5]=3907.0
C[6]=3847.0
C[7]=3835.0
C[8]=3169.0
C[9]=3093.0
C[10]=3085.0
C[11]=3080.0
C[12]=3072.0
C[13]=2888.0
C[14]=2651.0
C[15]=0.0
y[0]=0
y[1]=12
y[2]=3
y[3]=5
y[4]=14
y[5]=7
y[6]=10
y[7]=10
y[8]=10
y[9]=2
y[10]=8
y[11]=11
y[12]=13
y[13]=1
y[14]=9
y[15]=3
y[16]=1
y[17]=5
y[18]=1
y[19]=7
y[20]=14
y[21]=8
y[22]=13
y[23]=7
y[24]=1
y[25]=5
y[26]=10
y[27]=14
y[28]=4
y[29]=12
y[30]=12
y[31]=8
y[32]=2
y[33]=4
y[34]=10
y[35]=4
y[36]=10
y[37]=11
y[38]=3
y[39]=8
y[40]=0
y[41]=11
y[42]=9
y[43]=1
y[44]=11
y[45]=6
y[46]=4
y[47]=10
y[48]=10
y[49]=6
y[50]=12
y[51]=14
y[52]=5
y[53]=13
y[54]=2
y[55]=14
y[56]=3
y[57]=7
y[58]=13
y[59]=9
y[60]=1
y[61]=2
y[62]=9
y[63]=4
y[64]=13
y[65]=8
y[66]=4
y[67]=3
y[68]=12
y[69]=2
y[70]=1
y[71]=14
y[72]=6
y[73]=1
y[74]=0
y[75]=8
y[76]=7
y[77]=7
y[78]=10
y[79]=10
y[80]=13
y[81]=0
y[82]=2
y[83]=5
y[84]=10
y[85]=0
y[86]=11
y[87]=0
y[88]=2
y[89]=4
y[90]=8
y[91]=0
y[92]=11
y[93]=9
y[94]=9
y[95]=5
y[96]=2
y[97]=9
y[98]=9
y[99]=6
y[100]=3
y[101]=13
y[102]=5
y[103]=6
y[104]=1
y[105]=7
y[106]=2
y[107]=4
