data/solutions/recovery/wellformed/intermediate/binding/wellformed_intermediate_instance73/25.log

Log started (V12.6.3.0) Fri Apr 20 17:50:12 2018

New value for default parallel thread count: 1

Problem '/tmp/tmpNdRxTj.pyomo.lp' read.
Read time = 0.03 sec. (2.14 ticks)

Problem name         : /tmp/tmpNdRxTj.pyomo.lp
Objective sense      : Minimize
Variables            :    1746  [Nneg: 1,  Binary: 1728,  General Integer: 17]
Objective nonzeros   :       1
Linear constraints   :     250  [Less: 124,  Equal: 126]
  Nonzeros           :  155797
  RHS nonzeros       :     109

Variables            : Min LB: 0.000000         Max UB: 1.000000       
Objective nonzeros   : Min   : 1.000000         Max   : 1.000000       
Linear constraints   :
  Nonzeros           : Min   : 1.000000         Max   : 1715.000       
  RHS nonzeros       : Min   : 1.000000         Max   : 1.000000       
Tried aggregator 2 times.
MIP Presolve eliminated 208 rows and 1550 columns.
Aggregator did 15 substitutions.
Reduced MIP has 27 rows, 181 columns, and 375 nonzeros.
Reduced MIP has 180 binaries, 1 generals, 0 SOSs, and 0 indicators.
Presolve time = 0.01 sec. (10.43 ticks)
Found incumbent of value 15213.000000 after 0.01 sec. (14.16 ticks)
Probing time = 0.00 sec. (0.23 ticks)
Tried aggregator 1 time.
Reduced MIP has 27 rows, 181 columns, and 375 nonzeros.
Reduced MIP has 180 binaries, 1 generals, 0 SOSs, and 0 indicators.
Presolve time = 0.00 sec. (0.30 ticks)
Probing time = 0.00 sec. (0.23 ticks)
Clique table members: 12.
MIP emphasis: balance optimality and feasibility.
MIP search method: dynamic search.
Parallel mode: none, using 1 thread.
Root relaxation solution time = 0.00 sec. (0.15 ticks)

        Nodes                                         Cuts/
   Node  Left     Objective  IInf  Best Integer    Best Bound    ItCnt     Gap

*     0+    0                        15213.0000     4564.0000            70.00%
      0     0     4564.0000    10    15213.0000     4564.0000       19   70.00%
*     0+    0                         4564.0000     4564.0000             0.00%
      0     0        cutoff           4564.0000     4564.0000       19    0.00%
Elapsed time = 0.01 sec. (15.40 ticks, tree = 0.01 MB, solutions = 2)

Root node processing (before b&c):
  Real time             =    0.01 sec. (15.46 ticks)
Sequential b&c:
  Real time             =    0.00 sec. (0.00 ticks)
                          ------------
Total (root+branch&cut) =    0.01 sec. (15.46 ticks)

Solution pool: 2 solutions saved.

MIP - Integer optimal solution:  Objective =  4.5640000000e+03
Solution time =    0.01 sec.  Iterations = 19  Nodes = 0
Deterministic time = 15.47 ticks  (1156.36 ticks/sec)


Incumbent solution written to file '/tmp/tmpyuWWx5.cplex.sol'.

Log started (V12.6.3.0) Fri Apr 20 17:53:14 2018

New value for default parallel thread count: 1

Problem '/tmp/tmpu6293l.pyomo.lp' read.
Read time = 0.03 sec. (2.14 ticks)

Problem name         : /tmp/tmpu6293l.pyomo.lp
Objective sense      : Minimize
Variables            :    1746  [Nneg: 1,  Binary: 1728,  General Integer: 17]
Objective nonzeros   :       1
Linear constraints   :     250  [Less: 124,  Equal: 126]
  Nonzeros           :  155797
  RHS nonzeros       :     109

Variables            : Min LB: 0.000000         Max UB: 1.000000       
Objective nonzeros   : Min   : 1.000000         Max   : 1.000000       
Linear constraints   :
  Nonzeros           : Min   : 1.000000         Max   : 1715.000       
  RHS nonzeros       : Min   : 1.000000         Max   : 1.000000       
Tried aggregator 2 times.
MIP Presolve eliminated 208 rows and 1550 columns.
Aggregator did 15 substitutions.
Reduced MIP has 27 rows, 181 columns, and 375 nonzeros.
Reduced MIP has 180 binaries, 1 generals, 0 SOSs, and 0 indicators.
Presolve time = 0.01 sec. (10.43 ticks)
Found incumbent of value 15213.000000 after 0.01 sec. (14.16 ticks)
Probing time = 0.00 sec. (0.23 ticks)
Tried aggregator 1 time.
Reduced MIP has 27 rows, 181 columns, and 375 nonzeros.
Reduced MIP has 180 binaries, 1 generals, 0 SOSs, and 0 indicators.
Presolve time = 0.00 sec. (0.30 ticks)
Probing time = 0.00 sec. (0.23 ticks)
Clique table members: 12.
MIP emphasis: balance optimality and feasibility.
MIP search method: dynamic search.
Parallel mode: none, using 1 thread.
Root relaxation solution time = 0.00 sec. (0.15 ticks)

        Nodes                                         Cuts/
   Node  Left     Objective  IInf  Best Integer    Best Bound    ItCnt     Gap

*     0+    0                        15213.0000     4564.0000            70.00%
      0     0     4564.0000    10    15213.0000     4564.0000       19   70.00%
*     0+    0                         4564.0000     4564.0000             0.00%
      0     0        cutoff           4564.0000     4564.0000       19    0.00%
Elapsed time = 0.01 sec. (15.40 ticks, tree = 0.01 MB, solutions = 2)

Root node processing (before b&c):
  Real time             =    0.01 sec. (15.46 ticks)
Sequential b&c:
  Real time             =    0.00 sec. (0.00 ticks)
                          ------------
Total (root+branch&cut) =    0.01 sec. (15.46 ticks)

Solution pool: 2 solutions saved.

MIP - Integer optimal solution:  Objective =  4.5640000000e+03
Solution time =    0.01 sec.  Iterations = 19  Nodes = 0
Deterministic time = 15.47 ticks  (1142.17 ticks/sec)


Incumbent solution written to file '/tmp/tmpFlpBuY.cplex.sol'.
